datasets/2-dimensional/CL_08_25_03.vbp
2
150 150 
25
77 41 30
24 93 72
30 82 4
32 82 88
74 39 54
67 48 64
30 80 90
87 32 26
69 49 94
74 43 28
66 50 72
36 76 49
82 32 54
89 25 19
47 70 28
55 57 61
77 35 84
24 88 23
73 38 67
29 82 53
44 73 54
55 55 16
27 83 9
30 83 54
82 37 77
