2-dimensional/CL_08_25_03.txt
150 150 
0 30 77 41 
1 72 24 93 
2 4 30 82 
3 88 32 82 
4 54 74 39 
5 64 67 48 
6 90 30 80 
7 26 87 32 
8 94 69 49 
9 28 74 43 
10 72 66 50 
11 49 36 76 
12 54 82 32 
13 19 89 25 
14 28 47 70 
15 61 55 57 
16 84 77 35 
17 23 24 88 
18 67 73 38 
19 53 29 82 
20 54 44 73 
21 16 55 55 
22 9 27 83 
23 54 30 83 
24 77 82 37 
